************************************************************************
file with basedata            : n/a
initial value random generator: n/a
************************************************************************
projects                      :  1
jobs (incl. supersource/sink ):  122
horizon                       :  690
RESOURCES
  - renewable                 :  4   R
  - nonrenewable              :  0   N
  - doubly constrained        :  0   D
************************************************************************
PROJECT INFORMATION:
pronr.  #jobs rel.date duedate tardcost  MPM-Time
    1    120      0       90       78       90
************************************************************************
PRECEDENCE RELATIONS:
jobnr.    #modes  #successors   successors
   1        1          3           2   3   4
   2        1          3           5   7  14
   3        1          3           6  39  81
   4        1          3          10  11  12
   5        1          1           9
   6        1          3           8  27  37
   7        1          3          26  30  35
   8        1          3          13  15  17
   9        1          2          34  45
  10        1          2          71 109
  11        1          3          18  24  50
  12        1          3          16  19  23
  13        1          3          21  47  51
  14        1          2          20  98
  15        1          3          22  32  42
  16        1          3          25  49  55
  17        1          3          31  68  92
  18        1          3          41  53  72
  19        1          3          46  73 116
  20        1          2          54 121
  21        1          3          33  67  88
  22        1          1          61
  23        1          2          44  68
  24        1          3          40  56  65
  25        1          2          52 113
  26        1          1          64
  27        1          2          28  29
  28        1          2          38  58
  29        1          1          87
  30        1          3          60  63 100
  31        1          3          43  59  62
  32        1          2          66  96
  33        1          2          53  72
  34        1          3          36  73  86
  35        1          3          48  63  78
  36        1          3          66  75  97
  37        1          2          38 106
  38        1          1          74
  39        1          1          85
  40        1          1          63
  41        1          2          76  84
  42        1          1          90
  43        1          2          77  85
  44        1          2          48  52
  45        1          2          76  84
  46        1          3          58  75 111
  47        1          2          65  74
  48        1          1         113
  49        1          2          71  85
  50        1          1         105
  51        1          3          54  57  79
  52        1          1          53
  53        1          1          99
  54        1          1         114
  55        1          2          62  90
  56        1          1          57
  57        1          1         118
  58        1          1          93
  59        1          1          76
  60        1          2          91 119
  61        1          2          66  95
  62        1          3          65  72  94
  63        1          2          68  71
  64        1          2          82 105
  65        1          1          69
  66        1          1         107
  67        1          3          70  79  91
  68        1          2          87  96
  69        1          1          91
  70        1          2          86 118
  71        1          2          94 110
  72        1          3          82  83 103
  73        1          2          74 112
  74        1          2          83  93
  75        1          1          80
  76        1          2          80  89
  77        1          2          79  99
  78        1          3          86 103 111
  79        1          2          93  98
  80        1          2          83  87
  81        1          2          88  98
  82        1          2         108 112
  83        1          1         120
  84        1          1         115
  85        1          2          95 107
  86        1          2          95 102
  87        1          1         115
  88        1          1         117
  89        1          1          96
  90        1          1         108
  91        1          1         101
  92        1          1         104
  93        1          1         110
  94        1          2          99 103
  95        1          1         114
  96        1          3          97 104 105
  97        1          3         102 106 108
  98        1          1         110
  99        1          2         101 112
 100        1          2         101 104
 101        1          1         106
 102        1          1         109
 103        1          1         113
 104        1          1         109
 105        1          1         116
 106        1          2         107 115
 107        1          1         111
 108        1          1         116
 109        1          1         117
 110        1          1         119
 111        1          1         121
 112        1          1         114
 113        1          1         118
 114        1          1         117
 115        1          1         120
 116        1          1         120
 117        1          1         119
 118        1          1         121
 119        1          1         122
 120        1          1         122
 121        1          1         122
 122        1          0        
************************************************************************
REQUESTS/DURATIONS:
jobnr. mode duration  R 1  R 2  R 3  R 4
------------------------------------------------------------------------
  1      1     0    
  2      1     9       5   5   5   5   5   5   5   5   5
                       5   5   5   5   5   5   5   5   5
                       6   6   6   6   6   6   6   6   6
                       1   1   1   1   1   1   1   1   1
  3      1     6       3   3   3   3   3   3
                       8   8   8   8   8   8
                       3   3   3   3   3   3
                       7   7   7   7   7   7
  4      1     9       7   7   7   7   7   7   0   7   7
                       6   6   6   6   6   6   0   6   6
                       9   9   9   9   9   9   0   9   9
                       3   3   3   3   3   3   0   3   3
  5      1     1       9
                       3
                       8
                       4
  6      1    10       4   4   4   4   4   4   4   4   4   4
                      10  10  10  10  10  10  10  10  10  10
                       5   5   5   5   5   5   5   5   5   5
                      10  10  10  10  10  10  10  10  10  10
  7      1     2       5   5
                       8   8
                       6   6
                      10  10
  8      1     2       6   6
                       7   7
                       8   8
                       4   4
  9      1     2       6   0
                       9   0
                       9   0
                       4   0
 10      1     3       0   1   1
                       0   7   7
                       0   3   3
                       0   5   5
 11      1     5       9   9   9   9   9
                       1   1   1   1   1
                      10  10  10  10  10
                       7   7   7   7   7
 12      1     8       0   5   5   5   5   0   5   5
                       0   8   8   8   8   0   8   8
                       0   6   6   6   6   0   6   6
                       0   2   2   2   2   0   2   2
 13      1     6       0   5   5   5   5   5
                       0   8   8   8   8   8
                       0   4   4   4   4   4
                       0   7   7   7   7   7
 14      1     9       5   5   5   5   0   5   0   5   5
                       7   7   7   7   0   7   0   7   7
                       6   6   6   6   0   6   0   6   6
                       8   8   8   8   0   8   0   8   8
 15      1     3       7   7   7
                       3   3   3
                       1   1   1
                       9   9   9
 16      1    10       4   4   4   4   4   4   4   4   4   0
                       5   5   5   5   5   5   5   5   5   0
                       7   7   7   7   7   7   7   7   7   0
                       4   4   4   4   4   4   4   4   4   0
 17      1     4       0   7   7   7
                       0   8   8   8
                       0   8   8   8
                       0   4   4   4
 18      1     5       3   3   0   3   3
                       5   5   0   5   5
                       5   5   0   5   5
                       4   4   0   4   4
 19      1     4       0   5   5   5
                       0   5   5   5
                       0   9   9   9
                       0   3   3   3
 20      1     9       0   8   8   0   8   8   8   8   8
                       0   3   3   0   3   3   3   3   3
                       0   3   3   0   3   3   3   3   3
                       0   3   3   0   3   3   3   3   3
 21      1     8       3   3   3   3   3   3   3   3
                      10  10  10  10  10  10  10  10
                       4   4   4   4   4   4   4   4
                       6   6   6   6   6   6   6   6
 22      1     1       9
                       1
                       4
                       9
 23      1     6       2   2   2   0   2   0
                       3   3   3   0   3   0
                       8   8   8   0   8   0
                      10  10  10   0  10   0
 24      1     2       0   4
                       0   2
                       0   4
                       0   2
 25      1     1       5
                       8
                       7
                       5
 26      1     2       6   6
                       3   3
                       1   1
                       2   2
 27      1    10       0  10  10  10  10  10  10   0  10  10
                       0   3   3   3   3   3   3   0   3   3
                       0   2   2   2   2   2   2   0   2   2
                       0   5   5   5   5   5   5   0   5   5
 28      1     8      10   0  10  10  10  10   0  10
                       2   0   2   2   2   2   0   2
                       6   0   6   6   6   6   0   6
                       5   0   5   5   5   5   0   5
 29      1     8       5   0   5   5   5   5   0   5
                       3   0   3   3   3   3   0   3
                       2   0   2   2   2   2   0   2
                       3   0   3   3   3   3   0   3
 30      1     2       4   0
                       8   0
                       3   0
                      10   0
 31      1     5       6   0   0   6   6
                       1   0   0   1   1
                       5   0   0   5   5
                       7   0   0   7   7
 32      1     2       2   2
                       4   4
                       5   5
                      10  10
 33      1     5       0   6   6   6   0
                       0   1   1   1   0
                       0   9   9   9   0
                       0   4   4   4   0
 34      1    10       8   8   8   0   8   0   8   8   8   8
                      10  10  10   0  10   0  10  10  10  10
                      10  10  10   0  10   0  10  10  10  10
                       4   4   4   0   4   0   4   4   4   4
 35      1     5       2   2   2   2   2
                       4   4   4   4   4
                       5   5   5   5   5
                       7   7   7   7   7
 36      1     7       8   8   0   8   0   8   8
                       8   8   0   8   0   8   8
                       4   4   0   4   0   4   4
                       5   5   0   5   0   5   5
 37      1     7       0   2   2   0   2   2   0
                       0   7   7   0   7   7   0
                       0   1   1   0   1   1   0
                       0   3   3   0   3   3   0
 38      1     4       2   2   0   2
                       4   4   0   4
                       6   6   0   6
                       5   5   0   5
 39      1     9       1   0   1   1   1   1   1   1   1
                      10   0  10  10  10  10  10  10  10
                      10   0  10  10  10  10  10  10  10
                       9   0   9   9   9   9   9   9   9
 40      1     1       4
                      10
                       6
                       3
 41      1     3       1   0   1
                       4   0   4
                       5   0   5
                       1   0   1
 42      1    10       1   0   1   0   1   1   0   1   1   0
                       4   0   4   0   4   4   0   4   4   0
                      10   0  10   0  10  10   0  10  10   0
                       5   0   5   0   5   5   0   5   5   0
 43      1     6       7   7   0   7   7   7
                       7   7   0   7   7   7
                       5   5   0   5   5   5
                       9   9   0   9   9   9
 44      1     3       3   3   0
                       1   1   0
                       6   6   0
                       8   8   0
 45      1     7       2   2   0   2   2   2   2
                      10  10   0  10  10  10  10
                       5   5   0   5   5   5   5
                       9   9   0   9   9   9   9
 46      1    10       0  10  10  10   0   0   0  10  10   0
                       0   1   1   1   0   0   0   1   1   0
                       0   6   6   6   0   0   0   6   6   0
                       0   4   4   4   0   0   0   4   4   0
 47      1     8       1   1   1   0   1   1   1   1
                       8   8   8   0   8   8   8   8
                       5   5   5   0   5   5   5   5
                      10  10  10   0  10  10  10  10
 48      1    10       2   2   0   0   2   0   2   2   2   0
                       8   8   0   0   8   0   8   8   8   0
                       3   3   0   0   3   0   3   3   3   0
                       5   5   0   0   5   0   5   5   5   0
 49      1     9       0   8   8   8   8   8   8   8   8
                       0   3   3   3   3   3   3   3   3
                       0   9   9   9   9   9   9   9   9
                       0   7   7   7   7   7   7   7   7
 50      1     7      10  10  10  10  10  10  10
                       5   5   5   5   5   5   5
                       1   1   1   1   1   1   1
                      10  10  10  10  10  10  10
 51      1     9       1   1   1   1   1   1   1   0   0
                       4   4   4   4   4   4   4   0   0
                      10  10  10  10  10  10  10   0   0
                       4   4   4   4   4   4   4   0   0
 52      1     2       8   0
                       7   0
                       7   0
                       5   0
 53      1     7       0   0   6   6   6   6   6
                       0   0   7   7   7   7   7
                       0   0   1   1   1   1   1
                       0   0   6   6   6   6   6
 54      1     5       7   7   7   0   0
                       5   5   5   0   0
                       3   3   3   0   0
                       8   8   8   0   0
 55      1    10       0   7   0   7   7   0   7   0   7   7
                       0   8   0   8   8   0   8   0   8   8
                       0   4   0   4   4   0   4   0   4   4
                       0   5   0   5   5   0   5   0   5   5
 56      1     6       0   4   4   0   4   0
                       0   6   6   0   6   0
                       0   1   1   0   1   0
                       0   4   4   0   4   0
 57      1    10       7   7   7   7   7   7   7   0   7   0
                       5   5   5   5   5   5   5   0   5   0
                       1   1   1   1   1   1   1   0   1   0
                       5   5   5   5   5   5   5   0   5   0
 58      1     4       4   4   4   4
                       1   1   1   1
                       4   4   4   4
                       9   9   9   9
 59      1     8       5   5   5   5   5   5   5   5
                       7   7   7   7   7   7   7   7
                       8   8   8   8   8   8   8   8
                       5   5   5   5   5   5   5   5
 60      1     1       6
                       8
                       2
                      10
 61      1     9       5   5   5   0   5   5   5   0   5
                       7   7   7   0   7   7   7   0   7
                       9   9   9   0   9   9   9   0   9
                      10  10  10   0  10  10  10   0  10
 62      1     7       0   7   7   7   7   7   7
                       0   4   4   4   4   4   4
                       0   8   8   8   8   8   8
                       0   7   7   7   7   7   7
 63      1     4       0   9   9   9
                       0   6   6   6
                       0   7   7   7
                       0   9   9   9
 64      1     9       0   0   0   4   4   4   4   4   4
                       0   0   0   8   8   8   8   8   8
                       0   0   0   4   4   4   4   4   4
                       0   0   0  10  10  10  10  10  10
 65      1     7       2   0   2   0   2   2   2
                       4   0   4   0   4   4   4
                       1   0   1   0   1   1   1
                       7   0   7   0   7   7   7
 66      1     7       6   6   0   0   6   6   6
                       8   8   0   0   8   8   8
                       3   3   0   0   3   3   3
                       9   9   0   0   9   9   9
 67      1     3      10  10   0
                       3   3   0
                       4   4   0
                      10  10   0
 68      1    10       4   4   4   4   4   4   4   4   4   4
                       3   3   3   3   3   3   3   3   3   3
                       6   6   6   6   6   6   6   6   6   6
                      10  10  10  10  10  10  10  10  10  10
 69      1     9       3   3   3   3   3   3   0   3   3
                       8   8   8   8   8   8   0   8   8
                       8   8   8   8   8   8   0   8   8
                       2   2   2   2   2   2   0   2   2
 70      1    10       5   5   5   5   0   5   5   5   5   5
                       1   1   1   1   0   1   1   1   1   1
                       1   1   1   1   0   1   1   1   1   1
                       7   7   7   7   0   7   7   7   7   7
 71      1     5       8   8   8   8   8
                       6   6   6   6   6
                       3   3   3   3   3
                      10  10  10  10  10
 72      1     1       7
                       6
                       9
                       9
 73      1     1       7
                       1
                       5
                       4
 74      1     5       0   4   0   4   0
                       0   9   0   9   0
                       0  10   0  10   0
                       0   5   0   5   0
 75      1     6       5   5   5   5   5   5
                       6   6   6   6   6   6
                       6   6   6   6   6   6
                       4   4   4   4   4   4
 76      1     1      10
                       9
                       5
                       8
 77      1     2      10  10
                       4   4
                      10  10
                       7   7
 78      1     5       7   0   7   7   7
                       2   0   2   2   2
                       1   0   1   1   1
                       7   0   7   7   7
 79      1     2       6   0
                       2   0
                       7   0
                      10   0
 80      1     8       6   6   6   0   6   0   6   6
                       8   8   8   0   8   0   8   8
                      10  10  10   0  10   0  10  10
                       7   7   7   0   7   0   7   7
 81      1     4       0   1   1   1
                       0   7   7   7
                       0   8   8   8
                       0   3   3   3
 82      1     5       9   9   9   9   9
                       8   8   8   8   8
                      10  10  10  10  10
                       2   2   2   2   2
 83      1     3       4   4   4
                      10  10  10
                       8   8   8
                       8   8   8
 84      1     1       3
                       4
                       4
                       8
 85      1     3       0   9   9
                       0   2   2
                       0   2   2
                       0   7   7
 86      1     5       0   6   6   6   6
                       0   4   4   4   4
                       0   8   8   8   8
                       0   6   6   6   6
 87      1     4       1   1   1   1
                       8   8   8   8
                       4   4   4   4
                       1   1   1   1
 88      1     4       7   7   7   7
                       9   9   9   9
                       4   4   4   4
                       6   6   6   6
 89      1     1       0
                       0
                       0
                       0
 90      1     4      10  10  10  10
                       8   8   8   8
                       6   6   6   6
                       8   8   8   8
 91      1     6      10  10  10  10  10   0
                       5   5   5   5   5   0
                      10  10  10  10  10   0
                       9   9   9   9   9   0
 92      1     8       1   1   1   1   0   1   1   0
                      10  10  10  10   0  10  10   0
                       7   7   7   7   0   7   7   0
                       3   3   3   3   0   3   3   0
 93      1     9       6   6   0   0   6   6   0   6   0
                       4   4   0   0   4   4   0   4   0
                       1   1   0   0   1   1   0   1   0
                       7   7   0   0   7   7   0   7   0
 94      1    10       6   6   6   6   6   6   6   6   6   6
                      10  10  10  10  10  10  10  10  10  10
                       4   4   4   4   4   4   4   4   4   4
                       7   7   7   7   7   7   7   7   7   7
 95      1     8       0   5   5   5   5   5   5   0
                       0   4   4   4   4   4   4   0
                       0   6   6   6   6   6   6   0
                       0   6   6   6   6   6   6   0
 96      1    10       0   0  10   0  10  10  10  10  10  10
                       0   0   5   0   5   5   5   5   5   5
                       0   0   5   0   5   5   5   5   5   5
                       0   0   1   0   1   1   1   1   1   1
 97      1     3       2   0   2
                       5   0   5
                       4   0   4
                       4   0   4
 98      1     7       5   0   5   5   5   0   5
                       8   0   8   8   8   0   8
                       2   0   2   2   2   0   2
                       9   0   9   9   9   0   9
 99      1     1       2
                       3
                       9
                       5
100      1     4       0   8   0   0
                       0   3   0   0
                       0   6   0   0
                       0   2   0   0
101      1     5       0   3   3   3   3
                       0  10  10  10  10
                       0   8   8   8   8
                       0   2   2   2   2
102      1     3       8   8   8
                       9   9   9
                       9   9   9
                       2   2   2
103      1     9       1   1   1   0   1   1   1   1   1
                       2   2   2   0   2   2   2   2   2
                       6   6   6   0   6   6   6   6   6
                       2   2   2   0   2   2   2   2   2
104      1     6       0   1   0   1   1   1
                       0   5   0   5   5   5
                       0   6   0   6   6   6
                       0   4   0   4   4   4
105      1     3       8   8   8
                       8   8   8
                       6   6   6
                       1   1   1
106      1     9       9   9   9   9   9   9   9   9   9
                       4   4   4   4   4   4   4   4   4
                       1   1   1   1   1   1   1   1   1
                       3   3   3   3   3   3   3   3   3
107      1     1       5
                       8
                       8
                       4
108      1     7      10   0  10   0  10  10  10
                       4   0   4   0   4   4   4
                       1   0   1   0   1   1   1
                       4   0   4   0   4   4   4
109      1    10       9   9   9   9   9   9   0   9   9   9
                       8   8   8   8   8   8   0   8   8   8
                       4   4   4   4   4   4   0   4   4   4
                       3   3   3   3   3   3   0   3   3   3
110      1     7       0   8   8   8   8   8   8
                       0   6   6   6   6   6   6
                       0   6   6   6   6   6   6
                       0   3   3   3   3   3   3
111      1     3       9   9   9
                       2   2   2
                       1   1   1
                       3   3   3
112      1     7       4   4   4   4   4   4   0
                       4   4   4   4   4   4   0
                       8   8   8   8   8   8   0
                       3   3   3   3   3   3   0
113      1     8       5   5   5   5   0   5   0   5
                       3   3   3   3   0   3   0   3
                       8   8   8   8   0   8   0   8
                       6   6   6   6   0   6   0   6
114      1    10       0   0   0   0   0   9   9   9   9   9
                       0   0   0   0   0   7   7   7   7   7
                       0   0   0   0   0  10  10  10  10  10
                       0   0   0   0   0   8   8   8   8   8
115      1     1       5
                       6
                       2
                       1
116      1     9       0   6   0   0   6   0   0   6   0
                       0   7   0   0   7   0   0   7   0
                       0   2   0   0   2   0   0   2   0
                       0   6   0   0   6   0   0   6   0
117      1    10       4   4   4   0   4   4   0   4   4   4
                       2   2   2   0   2   2   0   2   2   2
                       9   9   9   0   9   9   0   9   9   9
                       7   7   7   0   7   7   0   7   7   7
118      1     6       7   7   7   0   0   0
                       6   6   6   0   0   0
                       4   4   4   0   0   0
                       2   2   2   0   0   0
119      1     7       1   1   1   1   1   1   1
                       2   2   2   2   2   2   2
                       7   7   7   7   7   7   7
                       5   5   5   5   5   5   5
120      1     9      10   0  10  10  10  10  10  10  10
                       1   0   1   1   1   1   1   1   1
                       1   0   1   1   1   1   1   1   1
                       5   0   5   5   5   5   5   5   5
121      1     4       6   6   6   0
                       6   6   6   0
                       9   9   9   0
                       8   8   8   0
122      1     0    
************************************************************************
RESOURCEAVAILABILITIES:
  R 1  R 2  R 3  R 4

  54   0  54   0  54  54  54  54  54  54   0   0  54  54  54  54   0   0   0  54  54   0  54   0  54  54  54  54  54  54  54  54  54   0  54  54  54  54  54  54  54   0  54  54   0   0  54  54   0  54  54   0  54   0  54  54  54  54  54   0  54  54   0   0  54  54  54  54  54  54  54  54  54  54  54  54  54  54  54   0   0  54  54  54  54  54  54  54   0   0  54   0  54  54  54  54  54  54  54  54  54   0  54  54  54  54  54  54  54  54  54  54  54  54  54   0   0  54  54  54  54  54  54  54  54  54   0  54  54  54   0  54  54   0  54  54  54  54   0  54  54  54   0  54  54  54   0  54  54   0  54  54  54  54  54  54   0  54   0   0  54  54   0  54  54   0  54   0  54  54  54   0  54  54  54  54   0  54  54  54  54  54  54   0  54  54   0  54   0  54   0  54  54  54  54  54  54   0   0  54   0  54  54  54  54   0  54   0   0  54  54   0  54   0  54  54  54  54  54  54  54  54  54  54  54  54   0  54  54  54  54  54   0  54  54  54  54  54  54  54  54  54  54  54  54  54  54  54  54  54   0  54   0  54  54   0   0  54  54   0  54  54  54  54  54  54  54  54  54  54  54  54  54   0  54  54  54  54   0   0  54  54  54  54  54  54   0  54  54  54   0   0  54  54  54   0   0   0   0  54  54  54   0  54   0  54   0  54  54  54  54   0   0   0  54  54   0  54  54   0   0  54  54  54   0  54  54  54  54  54  54   0  54  54  54  54  54  54  54  54  54   0  54  54   0  54  54  54  54   0  54   0   0  54   0  54  54  54  54  54  54   0  54  54  54  54  54  54  54   0   0  54  54   0  54  54  54  54  54  54  54   0  54   0  54  54  54   0  54   0  54  54  54   0  54  54  54   0  54  54  54  54  54  54  54  54  54  54   0  54  54  54  54  54   0  54  54  54  54  54  54  54  54  54   0  54   0  54  54  54  54  54   0  54   0  54  54  54  54   0  54  54   0  54  54  54   0   0  54  54   0   0  54  54  54  54  54  54   0  54   0   0  54  54   0  54  54  54  54  54  54  54  54   0  54  54   0  54  54  54  54   0  54  54   0  54  54  54  54  54  54  54  54   0  54   0  54   0  54  54  54  54  54  54  54  54  54  54  54  54  54  54   0  54  54  54  54  54  54  54  54  54  54  54   0  54  54   0  54  54  54  54  54  54  54  54   0  54   0  54  54   0  54  54  54  54  54   0  54  54  54  54  54  54  54  54  54  54  54  54  54  54  54  54  54  54   0  54   0  54  54  54  54  54  54  54  54  54   0  54  54  54   0   0   0   0  54   0   0  54  54  54   0  54  54  54  54   0  54  54   0   0  54  54  54  54   0  54  54   0  54  54  54  54  54  54  54  54  54  54   0  54  54  54  54  54  54  54   0   0  54  54  54  54  54  54   0  54   0  54  54  54  54   0  54  54  54  54  54  54   0  54  54  54  54  54  54   0  54  54  54  54  54  54  54  54  54  54  54   0  54  54   0  54  54  54  54  54  54  54  54  54  54  54  54  54  54  54  54  54

  56   0  56   0  56  56  56  56  56  56   0   0  56  56  56  56   0   0   0  56  56   0  56   0  56  56  56  56  56  56  56  56  56   0  56  56  56  56  56  56  56   0  56  56   0   0  56  56   0  56  56   0  56   0  56  56  56  56  56   0  56  56   0   0  56  56  56  56  56  56  56  56  56  56  56  56  56  56  56   0   0  56  56  56  56  56  56  56   0   0  56   0  56  56  56  56  56  56  56  56  56   0  56  56  56  56  56  56  56  56  56  56  56  56  56   0   0  56  56  56  56  56  56  56  56  56   0  56  56  56   0  56  56   0  56  56  56  56   0  56  56  56   0  56  56  56   0  56  56   0  56  56  56  56  56  56   0  56   0   0  56  56   0  56  56   0  56   0  56  56  56   0  56  56  56  56   0  56  56  56  56  56  56   0  56  56   0  56   0  56   0  56  56  56  56  56  56   0   0  56   0  56  56  56  56   0  56   0   0  56  56   0  56   0  56  56  56  56  56  56  56  56  56  56  56  56   0  56  56  56  56  56   0  56  56  56  56  56  56  56  56  56  56  56  56  56  56  56  56  56   0  56   0  56  56   0   0  56  56   0  56  56  56  56  56  56  56  56  56  56  56  56  56   0  56  56  56  56   0   0  56  56  56  56  56  56   0  56  56  56   0   0  56  56  56   0   0   0   0  56  56  56   0  56   0  56   0  56  56  56  56   0   0   0  56  56   0  56  56   0   0  56  56  56   0  56  56  56  56  56  56   0  56  56  56  56  56  56  56  56  56   0  56  56   0  56  56  56  56   0  56   0   0  56   0  56  56  56  56  56  56   0  56  56  56  56  56  56  56   0   0  56  56   0  56  56  56  56  56  56  56   0  56   0  56  56  56   0  56   0  56  56  56   0  56  56  56   0  56  56  56  56  56  56  56  56  56  56   0  56  56  56  56  56   0  56  56  56  56  56  56  56  56  56   0  56   0  56  56  56  56  56   0  56   0  56  56  56  56   0  56  56   0  56  56  56   0   0  56  56   0   0  56  56  56  56  56  56   0  56   0   0  56  56   0  56  56  56  56  56  56  56  56   0  56  56   0  56  56  56  56   0  56  56   0  56  56  56  56  56  56  56  56   0  56   0  56   0  56  56  56  56  56  56  56  56  56  56  56  56  56  56   0  56  56  56  56  56  56  56  56  56  56  56   0  56  56   0  56  56  56  56  56  56  56  56   0  56   0  56  56   0  56  56  56  56  56   0  56  56  56  56  56  56  56  56  56  56  56  56  56  56  56  56  56  56   0  56   0  56  56  56  56  56  56  56  56  56   0  56  56  56   0   0   0   0  56   0   0  56  56  56   0  56  56  56  56   0  56  56   0   0  56  56  56  56   0  56  56   0  56  56  56  56  56  56  56  56  56  56   0  56  56  56  56  56  56  56   0   0  56  56  56  56  56  56   0  56   0  56  56  56  56   0  56  56  56  56  56  56   0  56  56  56  56  56  56   0  56  56  56  56  56  56  56  56  56  56  56   0  56  56   0  56  56  56  56  56  56  56  56  56  56  56  56  56  56  56  56  56

  58   0  58   0  58  58  58  58  58  58   0   0  58  58  58  58   0   0   0  58  58   0  58   0  58  58  58  58  58  58  58  58  58   0  58  58  58  58  58  58  58   0  58  58   0   0  58  58   0  58  58   0  58   0  58  58  58  58  58   0  58  58   0   0  58  58  58  58  58  58  58  58  58  58  58  58  58  58  58   0   0  58  58  58  58  58  58  58   0   0  58   0  58  58  58  58  58  58  58  58  58   0  58  58  58  58  58  58  58  58  58  58  58  58  58   0   0  58  58  58  58  58  58  58  58  58   0  58  58  58   0  58  58   0  58  58  58  58   0  58  58  58   0  58  58  58   0  58  58   0  58  58  58  58  58  58   0  58   0   0  58  58   0  58  58   0  58   0  58  58  58   0  58  58  58  58   0  58  58  58  58  58  58   0  58  58   0  58   0  58   0  58  58  58  58  58  58   0   0  58   0  58  58  58  58   0  58   0   0  58  58   0  58   0  58  58  58  58  58  58  58  58  58  58  58  58   0  58  58  58  58  58   0  58  58  58  58  58  58  58  58  58  58  58  58  58  58  58  58  58   0  58   0  58  58   0   0  58  58   0  58  58  58  58  58  58  58  58  58  58  58  58  58   0  58  58  58  58   0   0  58  58  58  58  58  58   0  58  58  58   0   0  58  58  58   0   0   0   0  58  58  58   0  58   0  58   0  58  58  58  58   0   0   0  58  58   0  58  58   0   0  58  58  58   0  58  58  58  58  58  58   0  58  58  58  58  58  58  58  58  58   0  58  58   0  58  58  58  58   0  58   0   0  58   0  58  58  58  58  58  58   0  58  58  58  58  58  58  58   0   0  58  58   0  58  58  58  58  58  58  58   0  58   0  58  58  58   0  58   0  58  58  58   0  58  58  58   0  58  58  58  58  58  58  58  58  58  58   0  58  58  58  58  58   0  58  58  58  58  58  58  58  58  58   0  58   0  58  58  58  58  58   0  58   0  58  58  58  58   0  58  58   0  58  58  58   0   0  58  58   0   0  58  58  58  58  58  58   0  58   0   0  58  58   0  58  58  58  58  58  58  58  58   0  58  58   0  58  58  58  58   0  58  58   0  58  58  58  58  58  58  58  58   0  58   0  58   0  58  58  58  58  58  58  58  58  58  58  58  58  58  58   0  58  58  58  58  58  58  58  58  58  58  58   0  58  58   0  58  58  58  58  58  58  58  58   0  58   0  58  58   0  58  58  58  58  58   0  58  58  58  58  58  58  58  58  58  58  58  58  58  58  58  58  58  58   0  58   0  58  58  58  58  58  58  58  58  58   0  58  58  58   0   0   0   0  58   0   0  58  58  58   0  58  58  58  58   0  58  58   0   0  58  58  58  58   0  58  58   0  58  58  58  58  58  58  58  58  58  58   0  58  58  58  58  58  58  58   0   0  58  58  58  58  58  58   0  58   0  58  58  58  58   0  58  58  58  58  58  58   0  58  58  58  58  58  58   0  58  58  58  58  58  58  58  58  58  58  58   0  58  58   0  58  58  58  58  58  58  58  58  58  58  58  58  58  58  58  58  58

  58   0  58   0  58  58  58  58  58  58   0   0  58  58  58  58   0   0   0  58  58   0  58   0  58  58  58  58  58  58  58  58  58   0  58  58  58  58  58  58  58   0  58  58   0   0  58  58   0  58  58   0  58   0  58  58  58  58  58   0  58  58   0   0  58  58  58  58  58  58  58  58  58  58  58  58  58  58  58   0   0  58  58  58  58  58  58  58   0   0  58   0  58  58  58  58  58  58  58  58  58   0  58  58  58  58  58  58  58  58  58  58  58  58  58   0   0  58  58  58  58  58  58  58  58  58   0  58  58  58   0  58  58   0  58  58  58  58   0  58  58  58   0  58  58  58   0  58  58   0  58  58  58  58  58  58   0  58   0   0  58  58   0  58  58   0  58   0  58  58  58   0  58  58  58  58   0  58  58  58  58  58  58   0  58  58   0  58   0  58   0  58  58  58  58  58  58   0   0  58   0  58  58  58  58   0  58   0   0  58  58   0  58   0  58  58  58  58  58  58  58  58  58  58  58  58   0  58  58  58  58  58   0  58  58  58  58  58  58  58  58  58  58  58  58  58  58  58  58  58   0  58   0  58  58   0   0  58  58   0  58  58  58  58  58  58  58  58  58  58  58  58  58   0  58  58  58  58   0   0  58  58  58  58  58  58   0  58  58  58   0   0  58  58  58   0   0   0   0  58  58  58   0  58   0  58   0  58  58  58  58   0   0   0  58  58   0  58  58   0   0  58  58  58   0  58  58  58  58  58  58   0  58  58  58  58  58  58  58  58  58   0  58  58   0  58  58  58  58   0  58   0   0  58   0  58  58  58  58  58  58   0  58  58  58  58  58  58  58   0   0  58  58   0  58  58  58  58  58  58  58   0  58   0  58  58  58   0  58   0  58  58  58   0  58  58  58   0  58  58  58  58  58  58  58  58  58  58   0  58  58  58  58  58   0  58  58  58  58  58  58  58  58  58   0  58   0  58  58  58  58  58   0  58   0  58  58  58  58   0  58  58   0  58  58  58   0   0  58  58   0   0  58  58  58  58  58  58   0  58   0   0  58  58   0  58  58  58  58  58  58  58  58   0  58  58   0  58  58  58  58   0  58  58   0  58  58  58  58  58  58  58  58   0  58   0  58   0  58  58  58  58  58  58  58  58  58  58  58  58  58  58   0  58  58  58  58  58  58  58  58  58  58  58   0  58  58   0  58  58  58  58  58  58  58  58   0  58   0  58  58   0  58  58  58  58  58   0  58  58  58  58  58  58  58  58  58  58  58  58  58  58  58  58  58  58   0  58   0  58  58  58  58  58  58  58  58  58   0  58  58  58   0   0   0   0  58   0   0  58  58  58   0  58  58  58  58   0  58  58   0   0  58  58  58  58   0  58  58   0  58  58  58  58  58  58  58  58  58  58   0  58  58  58  58  58  58  58   0   0  58  58  58  58  58  58   0  58   0  58  58  58  58   0  58  58  58  58  58  58   0  58  58  58  58  58  58   0  58  58  58  58  58  58  58  58  58  58  58   0  58  58   0  58  58  58  58  58  58  58  58  58  58  58  58  58  58  58  58  58

************************************************************************
